sat
(
(define-fun J () String "")
(define-fun H () String "")
(define-fun I () String "")
(define-fun G () String "")
(define-fun F () String "")
(define-fun L () String "")
(define-fun O () String "aa")
(define-fun M () String "")
(define-fun P () String "")
)
